NAME: ../File/prFile/tspFile/tsp_file41.tsp
COMMENT: TSP file generated by Python
TYPE: TSP
DIMENSION: 30
EDGE_WEIGHT_TYPE: EUC_2D
NODE_COORD_SECTION
1 8 13
2 14 93
3 90 81
4 16 12
5 32 59
6 14 33
7 12 39
8 17 65
9 56 21
10 12 59
11 30 69
12 78 50
13 40 52
14 52 33
15 87 45
16 61 70
17 98 99
18 42 30
19 14 6
20 35 74
21 32 67
22 70 14
23 7 32
24 47 50
25 6 60
26 64 56
27 97 54
28 63 26
29 87 27
30 82 7
EOF
